p cnf 678 1554
1 0
2 0
3 0
4 0
5 0
6 0
7 0
8 0
9 0
10 0
-11 0
-12 0
-13 0
-14 0
-15 0
-16 0
-17 0
-18 0
-19 0
-20 0
21 22 0
23 22 0
-21 -23 -22 0
-1 22 -24 0
1 -22 -24 0
24 -22 -1 0
1 22 24 0
-24 0
25 26 0
27 26 0
-25 -27 -26 0
-23 26 -28 0
23 -26 -28 0
28 -26 -23 0
23 26 28 0
-28 0
27 -29 0
29 -27 0
30 31 0
32 31 0
-30 -32 -31 0
-2 31 -33 0
2 -31 -33 0
33 -31 -2 0
2 31 33 0
-33 0
34 35 0
36 35 0
-34 -36 -35 0
-32 35 -37 0
32 -35 -37 0
37 -35 -32 0
32 35 37 0
-37 0
38 39 0
40 39 0
-38 -40 -39 0
-36 39 -41 0
36 -39 -41 0
41 -39 -36 0
36 39 41 0
-41 0
42 43 0
44 43 0
-42 -44 -43 0
-40 43 -45 0
40 -43 -45 0
45 -43 -40 0
40 43 45 0
-45 0
46 47 0
48 47 0
-46 -48 -47 0
-44 47 -49 0
44 -47 -49 0
49 -47 -44 0
44 47 49 0
-49 0
46 50 0
51 50 0
-46 -51 -50 0
-48 50 -52 0
48 -50 -52 0
52 -50 -48 0
48 50 52 0
-52 0
53 54 0
55 54 0
-53 -55 -54 0
-3 54 -56 0
3 -54 -56 0
56 -54 -3 0
3 54 56 0
-56 0
57 58 0
59 58 0
-57 -59 -58 0
-55 58 -60 0
55 -58 -60 0
60 -58 -55 0
55 58 60 0
-60 0
61 62 0
63 62 0
-61 -63 -62 0
-59 62 -64 0
59 -62 -64 0
64 -62 -59 0
59 62 64 0
-64 0
61 65 0
66 65 0
-61 -66 -65 0
-63 65 -67 0
63 -65 -67 0
67 -65 -63 0
63 65 67 0
-67 0
68 69 0
70 69 0
-68 -70 -69 0
-4 69 -71 0
4 -69 -71 0
71 -69 -4 0
4 69 71 0
-71 0
72 73 0
74 73 0
-72 -74 -73 0
-70 73 -75 0
70 -73 -75 0
75 -73 -70 0
70 73 75 0
-75 0
72 76 0
77 76 0
-72 -77 -76 0
-74 76 -78 0
74 -76 -78 0
78 -76 -74 0
74 76 78 0
-78 0
79 80 0
81 80 0
-79 -81 -80 0
-5 80 -82 0
5 -80 -82 0
82 -80 -5 0
5 80 82 0
-82 0
83 84 0
85 84 0
-83 -85 -84 0
-81 84 -86 0
81 -84 -86 0
86 -84 -81 0
81 84 86 0
-86 0
87 88 0
89 88 0
-87 -89 -88 0
-85 88 -90 0
85 -88 -90 0
90 -88 -85 0
85 88 90 0
-90 0
91 92 0
93 92 0
-91 -93 -92 0
-89 92 -94 0
89 -92 -94 0
94 -92 -89 0
89 92 94 0
-94 0
95 96 0
97 96 0
-95 -97 -96 0
-93 96 -98 0
93 -96 -98 0
98 -96 -93 0
93 96 98 0
-98 0
87 99 0
91 99 0
95 99 0
100 99 0
-101 0
-97 99 -102 0
97 -99 -102 0
102 -99 -97 0
97 99 102 0
-102 0
103 104 0
105 104 0
-103 -105 -104 0
-6 104 -106 0
6 -104 -106 0
106 -104 -6 0
6 104 106 0
-106 0
107 108 0
109 108 0
-107 -109 -108 0
-105 108 -110 0
105 -108 -110 0
110 -108 -105 0
105 108 110 0
-110 0
111 112 0
113 112 0
-111 -113 -112 0
-109 112 -114 0
109 -112 -114 0
114 -112 -109 0
109 112 114 0
-114 0
111 115 0
116 115 0
-111 -116 -115 0
-113 115 -117 0
113 -115 -117 0
117 -115 -113 0
113 115 117 0
-117 0
118 119 0
120 119 0
-118 -120 -119 0
-7 119 -121 0
7 -119 -121 0
121 -119 -7 0
7 119 121 0
-121 0
122 123 0
124 123 0
-122 -124 -123 0
-120 123 -125 0
120 -123 -125 0
125 -123 -120 0
120 123 125 0
-125 0
124 -126 0
126 -124 0
127 128 0
129 128 0
-127 -129 -128 0
-8 128 -130 0
8 -128 -130 0
130 -128 -8 0
8 128 130 0
-130 0
131 132 0
133 132 0
-131 -133 -132 0
-129 132 -134 0
129 -132 -134 0
134 -132 -129 0
129 132 134 0
-134 0
135 136 0
137 136 0
-135 -137 -136 0
-133 136 -138 0
133 -136 -138 0
138 -136 -133 0
133 136 138 0
-138 0
139 140 0
141 140 0
-139 -141 -140 0
-137 140 -142 0
137 -140 -142 0
142 -140 -137 0
137 140 142 0
-142 0
143 144 0
145 144 0
-143 -145 -144 0
-141 144 -146 0
141 -144 -146 0
146 -144 -141 0
141 144 146 0
-146 0
147 148 0
149 148 0
-147 -149 -148 0
-145 148 -150 0
145 -148 -150 0
150 -148 -145 0
145 148 150 0
-150 0
139 151 0
143 151 0
147 151 0
152 151 0
-153 0
-149 151 -154 0
149 -151 -154 0
154 -151 -149 0
149 151 154 0
-154 0
155 156 0
157 156 0
-155 -157 -156 0
-9 156 -158 0
9 -156 -158 0
158 -156 -9 0
9 156 158 0
-158 0
159 160 0
161 160 0
-159 -161 -160 0
-157 160 -162 0
157 -160 -162 0
162 -160 -157 0
157 160 162 0
-162 0
159 163 0
164 163 0
-159 -164 -163 0
-161 163 -165 0
161 -163 -165 0
165 -163 -161 0
161 163 165 0
-165 0
166 167 0
168 167 0
-166 -168 -167 0
-10 167 -169 0
10 -167 -169 0
169 -167 -10 0
10 167 169 0
-169 0
170 171 0
172 171 0
-170 -172 -171 0
-168 171 -173 0
168 -171 -173 0
173 -171 -168 0
168 171 173 0
-173 0
172 -174 0
174 -172 0
175 176 0
177 176 0
-175 -177 -176 0
-11 176 -178 0
11 -176 -178 0
178 -176 -11 0
11 176 178 0
-178 0
179 180 0
181 180 0
-179 -181 -180 0
-177 180 -182 0
177 -180 -182 0
182 -180 -177 0
177 180 182 0
-182 0
183 184 0
185 184 0
-183 -185 -184 0
-181 184 -186 0
181 -184 -186 0
186 -184 -181 0
181 184 186 0
-186 0
187 188 0
189 188 0
-187 -189 -188 0
-185 188 -190 0
185 -188 -190 0
190 -188 -185 0
185 188 190 0
-190 0
191 192 0
193 192 0
-191 -193 -192 0
-189 192 -194 0
189 -192 -194 0
194 -192 -189 0
189 192 194 0
-194 0
183 195 0
187 195 0
191 195 0
196 195 0
-197 0
-193 195 -198 0
193 -195 -198 0
198 -195 -193 0
193 195 198 0
-198 0
199 200 0
201 200 0
-199 -201 -200 0
-12 200 -202 0
12 -200 -202 0
202 -200 -12 0
12 200 202 0
-202 0
203 204 0
205 204 0
-203 -205 -204 0
-201 204 -206 0
201 -204 -206 0
206 -204 -201 0
201 204 206 0
-206 0
207 208 0
209 208 0
-207 -209 -208 0
-205 208 -210 0
205 -208 -210 0
210 -208 -205 0
205 208 210 0
-210 0
211 212 0
213 212 0
-211 -213 -212 0
-209 212 -214 0
209 -212 -214 0
214 -212 -209 0
209 212 214 0
-214 0
215 216 0
217 216 0
-215 -217 -216 0
-213 216 -218 0
213 -216 -218 0
218 -216 -213 0
213 216 218 0
-218 0
215 219 0
220 219 0
-215 -220 -219 0
-217 219 -221 0
217 -219 -221 0
221 -219 -217 0
217 219 221 0
-221 0
222 223 0
224 223 0
-222 -224 -223 0
-13 223 -225 0
13 -223 -225 0
225 -223 -13 0
13 223 225 0
-225 0
226 227 0
228 227 0
-226 -228 -227 0
-224 227 -229 0
224 -227 -229 0
229 -227 -224 0
224 227 229 0
-229 0
230 231 0
232 231 0
-230 -232 -231 0
-228 231 -233 0
228 -231 -233 0
233 -231 -228 0
228 231 233 0
-233 0
234 235 0
236 235 0
-234 -236 -235 0
-232 235 -237 0
232 -235 -237 0
237 -235 -232 0
232 235 237 0
-237 0
238 239 0
240 239 0
-238 -240 -239 0
-236 239 -241 0
236 -239 -241 0
241 -239 -236 0
236 239 241 0
-241 0
234 242 0
238 242 0
243 242 0
-234 -238 -243 -242 0
-240 242 -244 0
240 -242 -244 0
244 -242 -240 0
240 242 244 0
-244 0
245 246 0
247 246 0
-245 -247 -246 0
-14 246 -248 0
14 -246 -248 0
248 -246 -14 0
14 246 248 0
-248 0
249 250 0
251 250 0
-249 -251 -250 0
-247 250 -252 0
247 -250 -252 0
252 -250 -247 0
247 250 252 0
-252 0
253 254 0
255 254 0
-253 -255 -254 0
-251 254 -256 0
251 -254 -256 0
256 -254 -251 0
251 254 256 0
-256 0
257 258 0
259 258 0
-257 -259 -258 0
-255 258 -260 0
255 -258 -260 0
260 -258 -255 0
255 258 260 0
-260 0
261 262 0
263 262 0
-261 -263 -262 0
-259 262 -264 0
259 -262 -264 0
264 -262 -259 0
259 262 264 0
-264 0
265 266 0
267 266 0
-265 -267 -266 0
-263 266 -268 0
263 -266 -268 0
268 -266 -263 0
263 266 268 0
-268 0
269 270 0
271 270 0
-269 -271 -270 0
-267 270 -272 0
267 -270 -272 0
272 -270 -267 0
267 270 272 0
-272 0
261 273 0
265 273 0
269 273 0
274 273 0
-275 0
-271 273 -276 0
271 -273 -276 0
276 -273 -271 0
271 273 276 0
-276 0
277 278 0
279 278 0
-277 -279 -278 0
-15 278 -280 0
15 -278 -280 0
280 -278 -15 0
15 278 280 0
-280 0
281 282 0
283 282 0
-281 -283 -282 0
-279 282 -284 0
279 -282 -284 0
284 -282 -279 0
279 282 284 0
-284 0
285 286 0
287 286 0
-285 -287 -286 0
-283 286 -288 0
283 -286 -288 0
288 -286 -283 0
283 286 288 0
-288 0
285 289 0
290 289 0
-285 -290 -289 0
-287 289 -291 0
287 -289 -291 0
291 -289 -287 0
287 289 291 0
-291 0
292 293 0
294 293 0
-292 -294 -293 0
-16 293 -295 0
16 -293 -295 0
295 -293 -16 0
16 293 295 0
-295 0
296 297 0
298 297 0
-296 -298 -297 0
-294 297 -299 0
294 -297 -299 0
299 -297 -294 0
294 297 299 0
-299 0
300 301 0
302 301 0
-300 -302 -301 0
-298 301 -303 0
298 -301 -303 0
303 -301 -298 0
298 301 303 0
-303 0
304 305 0
306 305 0
-304 -306 -305 0
-302 305 -307 0
302 -305 -307 0
307 -305 -302 0
302 305 307 0
-307 0
300 308 0
304 308 0
309 308 0
-300 -304 -309 -308 0
-306 308 -310 0
306 -308 -310 0
310 -308 -306 0
306 308 310 0
-310 0
311 312 0
313 312 0
-311 -313 -312 0
-17 312 -314 0
17 -312 -314 0
314 -312 -17 0
17 312 314 0
-314 0
315 316 0
317 316 0
-315 -317 -316 0
-313 316 -318 0
313 -316 -318 0
318 -316 -313 0
313 316 318 0
-318 0
319 320 0
321 320 0
-319 -321 -320 0
-317 320 -322 0
317 -320 -322 0
322 -320 -317 0
317 320 322 0
-322 0
323 324 0
325 324 0
-323 -325 -324 0
-321 324 -326 0
321 -324 -326 0
326 -324 -321 0
321 324 326 0
-326 0
323 327 0
328 327 0
-323 -328 -327 0
-325 327 -329 0
325 -327 -329 0
329 -327 -325 0
325 327 329 0
-329 0
330 331 0
332 331 0
-330 -332 -331 0
-18 331 -333 0
18 -331 -333 0
333 -331 -18 0
18 331 333 0
-333 0
334 335 0
336 335 0
-334 -336 -335 0
-332 335 -337 0
332 -335 -337 0
337 -335 -332 0
332 335 337 0
-337 0
338 339 0
340 339 0
-338 -340 -339 0
-336 339 -341 0
336 -339 -341 0
341 -339 -336 0
336 339 341 0
-341 0
342 343 0
344 343 0
-342 -344 -343 0
-340 343 -345 0
340 -343 -345 0
345 -343 -340 0
340 343 345 0
-345 0
338 346 0
342 346 0
347 346 0
-338 -342 -347 -346 0
-344 346 -348 0
344 -346 -348 0
348 -346 -344 0
344 346 348 0
-348 0
349 350 0
351 350 0
-349 -351 -350 0
-19 350 -352 0
19 -350 -352 0
352 -350 -19 0
19 350 352 0
-352 0
353 354 0
355 354 0
-353 -355 -354 0
-351 354 -356 0
351 -354 -356 0
356 -354 -351 0
351 354 356 0
-356 0
357 358 0
359 358 0
-357 -359 -358 0
-355 358 -360 0
355 -358 -360 0
360 -358 -355 0
355 358 360 0
-360 0
359 -361 0
361 -359 0
362 363 0
364 363 0
-362 -364 -363 0
-20 363 -365 0
20 -363 -365 0
365 -363 -20 0
20 363 365 0
-365 0
366 367 0
368 367 0
-366 -368 -367 0
-364 367 -369 0
364 -367 -369 0
369 -367 -364 0
364 367 369 0
-369 0
370 371 0
372 371 0
-370 -372 -371 0
-368 371 -373 0
368 -371 -373 0
373 -371 -368 0
368 371 373 0
-373 0
374 375 0
376 375 0
-374 -376 -375 0
-372 375 -377 0
372 -375 -377 0
377 -375 -372 0
372 375 377 0
-377 0
370 378 0
374 378 0
379 378 0
-370 -374 -379 -378 0
-376 378 -380 0
376 -378 -380 0
380 -378 -376 0
376 378 380 0
-380 0
381 382 0
382 -383 0
-381 383 -382 0
21 -382 0
-21 382 0
384 385 0
-386 385 0
-384 386 -385 0
25 -385 0
-25 385 0
387 388 0
388 -389 0
-387 389 -388 0
29 -388 0
-29 388 0
390 391 0
391 -392 0
-390 392 -391 0
30 -391 0
-30 391 0
393 394 0
-395 394 0
-393 395 -394 0
34 -394 0
-34 394 0
396 397 0
-398 397 0
-396 398 -397 0
38 -397 0
-38 397 0
399 400 0
400 -401 0
-399 401 -400 0
42 -400 0
-42 400 0
402 403 0
403 -404 0
-402 404 -403 0
46 -403 0
-46 403 0
405 406 0
-407 406 0
-405 407 -406 0
51 -406 0
-51 406 0
408 409 0
-410 409 0
-408 410 -409 0
53 -409 0
-53 409 0
411 412 0
412 -413 0
-411 413 -412 0
57 -412 0
-57 412 0
414 415 0
415 -416 0
-414 416 -415 0
61 -415 0
-61 415 0
417 418 0
-419 418 0
-417 419 -418 0
66 -418 0
-66 418 0
420 421 0
-422 421 0
-420 422 -421 0
68 -421 0
-68 421 0
423 424 0
424 -425 0
-423 425 -424 0
72 -424 0
-72 424 0
426 427 0
-428 427 0
-426 428 -427 0
77 -427 0
-77 427 0
429 430 0
-431 430 0
-429 431 -430 0
79 -430 0
-79 430 0
432 433 0
433 -434 0
-432 434 -433 0
83 -433 0
-83 433 0
435 436 0
-437 436 0
-435 437 -436 0
87 -436 0
-87 436 0
438 439 0
-440 439 0
-438 440 -439 0
91 -439 0
-91 439 0
441 442 0
442 -443 0
-441 443 -442 0
95 -442 0
-95 442 0
444 445 0
-446 445 0
-444 446 -445 0
100 -445 0
-100 445 0
447 448 0
-449 448 0
-447 449 -448 0
103 -448 0
-103 448 0
450 451 0
-452 451 0
-450 452 -451 0
107 -451 0
-107 451 0
453 454 0
454 -455 0
-453 455 -454 0
111 -454 0
-111 454 0
456 457 0
-458 457 0
-456 458 -457 0
116 -457 0
-116 457 0
459 460 0
460 -461 0
-459 461 -460 0
118 -460 0
-118 460 0
462 463 0
-464 463 0
-462 464 -463 0
122 -463 0
-122 463 0
465 466 0
466 -467 0
-465 467 -466 0
126 -466 0
-126 466 0
468 469 0
-470 469 0
-468 470 -469 0
127 -469 0
-127 469 0
471 472 0
-473 472 0
-471 473 -472 0
131 -472 0
-131 472 0
474 475 0
475 -476 0
-474 476 -475 0
135 -475 0
-135 475 0
477 478 0
-479 478 0
-477 479 -478 0
139 -478 0
-139 478 0
480 481 0
481 -482 0
-480 482 -481 0
143 -481 0
-143 481 0
483 484 0
-485 484 0
-483 485 -484 0
147 -484 0
-147 484 0
486 487 0
-488 487 0
-486 488 -487 0
152 -487 0
-152 487 0
489 490 0
-491 490 0
-489 491 -490 0
155 -490 0
-155 490 0
492 493 0
-494 493 0
-492 494 -493 0
159 -493 0
-159 493 0
495 496 0
496 -497 0
-495 497 -496 0
164 -496 0
-164 496 0
498 499 0
-500 499 0
-498 500 -499 0
166 -499 0
-166 499 0
501 502 0
-503 502 0
-501 503 -502 0
170 -502 0
-170 502 0
504 505 0
505 -506 0
-504 506 -505 0
174 -505 0
-174 505 0
507 508 0
-509 508 0
-507 509 -508 0
175 -508 0
-175 508 0
510 511 0
511 -512 0
-510 512 -511 0
179 -511 0
-179 511 0
513 514 0
514 -515 0
-513 515 -514 0
183 -514 0
-183 514 0
516 517 0
517 -518 0
-516 518 -517 0
187 -517 0
-187 517 0
519 520 0
520 -521 0
-519 521 -520 0
191 -520 0
-191 520 0
522 523 0
-524 523 0
-522 524 -523 0
196 -523 0
-196 523 0
525 526 0
526 -527 0
-525 527 -526 0
199 -526 0
-199 526 0
528 529 0
-530 529 0
-528 530 -529 0
203 -529 0
-203 529 0
531 532 0
532 -533 0
-531 533 -532 0
207 -532 0
-207 532 0
534 535 0
-536 535 0
-534 536 -535 0
211 -535 0
-211 535 0
537 538 0
-539 538 0
-537 539 -538 0
215 -538 0
-215 538 0
540 541 0
-542 541 0
-540 542 -541 0
220 -541 0
-220 541 0
543 544 0
-545 544 0
-543 545 -544 0
222 -544 0
-222 544 0
546 547 0
547 -548 0
-546 548 -547 0
226 -547 0
-226 547 0
549 550 0
-551 550 0
-549 551 -550 0
230 -550 0
-230 550 0
552 553 0
-554 553 0
-552 554 -553 0
234 -553 0
-234 553 0
555 556 0
-557 556 0
-555 557 -556 0
238 -556 0
-238 556 0
558 559 0
559 -560 0
-558 560 -559 0
243 -559 0
-243 559 0
561 562 0
-563 562 0
-561 563 -562 0
245 -562 0
-245 562 0
564 565 0
-566 565 0
-564 566 -565 0
249 -565 0
-249 565 0
567 568 0
568 -569 0
-567 569 -568 0
253 -568 0
-253 568 0
570 571 0
-572 571 0
-570 572 -571 0
257 -571 0
-257 571 0
573 574 0
-575 574 0
-573 575 -574 0
261 -574 0
-261 574 0
576 577 0
577 -578 0
-576 578 -577 0
265 -577 0
-265 577 0
579 580 0
-581 580 0
-579 581 -580 0
269 -580 0
-269 580 0
582 583 0
-584 583 0
-582 584 -583 0
274 -583 0
-274 583 0
585 586 0
-587 586 0
-585 587 -586 0
277 -586 0
-277 586 0
588 589 0
-590 589 0
-588 590 -589 0
281 -589 0
-281 589 0
591 592 0
-593 592 0
-591 593 -592 0
285 -592 0
-285 592 0
594 595 0
-596 595 0
-594 596 -595 0
290 -595 0
-290 595 0
597 598 0
-599 598 0
-597 599 -598 0
292 -598 0
-292 598 0
600 601 0
-602 601 0
-600 602 -601 0
296 -601 0
-296 601 0
603 604 0
-605 604 0
-603 605 -604 0
300 -604 0
-300 604 0
606 607 0
-608 607 0
-606 608 -607 0
304 -607 0
-304 607 0
609 610 0
610 -611 0
-609 611 -610 0
309 -610 0
-309 610 0
612 613 0
613 -614 0
-612 614 -613 0
311 -613 0
-311 613 0
615 616 0
616 -617 0
-615 617 -616 0
315 -616 0
-315 616 0
618 619 0
-620 619 0
-618 620 -619 0
319 -619 0
-319 619 0
621 622 0
-623 622 0
-621 623 -622 0
323 -622 0
-323 622 0
624 625 0
-626 625 0
-624 626 -625 0
328 -625 0
-328 625 0
627 628 0
-629 628 0
-627 629 -628 0
330 -628 0
-330 628 0
630 631 0
-632 631 0
-630 632 -631 0
334 -631 0
-334 631 0
633 634 0
-635 634 0
-633 635 -634 0
338 -634 0
-338 634 0
636 637 0
-638 637 0
-636 638 -637 0
342 -637 0
-342 637 0
639 640 0
-641 640 0
-639 641 -640 0
347 -640 0
-347 640 0
642 643 0
-644 643 0
-642 644 -643 0
349 -643 0
-349 643 0
645 646 0
-647 646 0
-645 647 -646 0
353 -646 0
-353 646 0
648 649 0
-650 649 0
-648 650 -649 0
357 -649 0
-357 649 0
651 652 0
652 -653 0
-651 653 -652 0
361 -652 0
-361 652 0
654 655 0
655 -656 0
-654 656 -655 0
362 -655 0
-362 655 0
657 658 0
-659 658 0
-657 659 -658 0
366 -658 0
-366 658 0
660 661 0
-662 661 0
-660 662 -661 0
370 -661 0
-370 661 0
663 664 0
664 -665 0
-663 665 -664 0
374 -664 0
-374 664 0
666 667 0
-668 667 0
-666 668 -667 0
379 -667 0
-379 667 0
381 0
-384 0
387 0
390 0
-393 0
-396 0
399 0
402 0
-405 0
-408 0
411 0
414 0
-417 0
-420 0
423 0
-426 0
-429 0
432 0
-435 0
-438 0
441 0
-444 0
-447 0
-450 0
453 0
-456 0
459 0
-462 0
465 0
-468 0
-471 0
474 0
-477 0
480 0
-483 0
-486 0
-489 0
-492 0
495 0
-498 0
-501 0
504 0
507 0
510 0
513 0
516 0
519 0
-522 0
525 0
-528 0
531 0
-534 0
-537 0
540 0
-543 0
546 0
549 0
-552 0
-555 0
558 0
-561 0
-564 0
567 0
-570 0
-573 0
576 0
-579 0
582 0
585 0
588 0
591 0
-594 0
-597 0
-600 0
603 0
-606 0
609 0
612 0
615 0
-618 0
621 0
-624 0
-627 0
630 0
633 0
-636 0
-639 0
-642 0
645 0
-648 0
651 0
654 0
-657 0
660 0
663 0
-666 0
-669 -670 0
383 -669 0
386 -669 0
389 -669 0
392 -669 0
395 -669 0
398 -669 0
401 -669 0
404 -669 0
407 -669 0
410 -669 0
413 -669 0
416 -669 0
419 -669 0
-669 -422 0
425 -669 0
428 -669 0
431 -669 0
434 -669 0
437 -669 0
440 -669 0
443 -669 0
446 -669 0
-669 -449 0
-669 -452 0
455 -669 0
458 -669 0
461 -669 0
464 -669 0
467 -669 0
470 -669 0
-669 -473 0
476 -669 0
479 -669 0
482 -669 0
485 -669 0
488 -669 0
491 -669 0
494 -669 0
497 -669 0
500 -669 0
-669 -503 0
506 -669 0
-669 -509 0
512 -669 0
515 -669 0
518 -669 0
521 -669 0
-669 -524 0
527 -669 0
530 -669 0
533 -669 0
-669 -536 0
-669 -539 0
-669 -542 0
-669 -545 0
548 -669 0
-669 -551 0
-669 -554 0
-669 -557 0
560 -669 0
-669 -563 0
-669 -566 0
569 -669 0
-669 -572 0
-669 -575 0
578 -669 0
-669 -581 0
-669 -584 0
-669 -587 0
-669 -590 0
-669 -593 0
-669 -596 0
599 -669 0
602 -669 0
-669 -605 0
-669 -608 0
611 -669 0
614 -669 0
617 -669 0
-669 -620 0
-669 -623 0
626 -669 0
629 -669 0
-669 -632 0
-669 -635 0
638 -669 0
-669 -641 0
-669 -644 0
-669 -647 0
-669 -650 0
653 -669 0
656 -669 0
-669 -659 0
-669 -662 0
665 -669 0
668 -669 0
383 -670 0
-670 -386 0
389 -670 0
392 -670 0
-670 -395 0
-670 -398 0
401 -670 0
404 -670 0
-670 -407 0
-670 -410 0
413 -670 0
416 -670 0
-670 -419 0
-670 -422 0
425 -670 0
-670 -428 0
-670 -431 0
434 -670 0
-670 -437 0
-670 -440 0
443 -670 0
-670 -446 0
-670 -449 0
-670 -452 0
455 -670 0
-670 -458 0
461 -670 0
-670 -464 0
467 -670 0
-670 -470 0
-670 -473 0
476 -670 0
-670 -479 0
482 -670 0
-670 -485 0
-670 -488 0
-670 -491 0
-670 -494 0
497 -670 0
-670 -500 0
-670 -503 0
506 -670 0
509 -670 0
512 -670 0
515 -670 0
518 -670 0
521 -670 0
-670 -524 0
527 -670 0
-670 -530 0
533 -670 0
-670 -536 0
-670 -539 0
542 -670 0
-670 -545 0
548 -670 0
551 -670 0
-670 -554 0
-670 -557 0
560 -670 0
-670 -563 0
-670 -566 0
569 -670 0
-670 -572 0
-670 -575 0
578 -670 0
-670 -581 0
584 -670 0
587 -670 0
590 -670 0
593 -670 0
-670 -596 0
-670 -599 0
-670 -602 0
605 -670 0
-670 -608 0
611 -670 0
614 -670 0
617 -670 0
-670 -620 0
623 -670 0
-670 -626 0
-670 -629 0
632 -670 0
635 -670 0
-670 -638 0
-670 -641 0
-670 -644 0
647 -670 0
-670 -650 0
653 -670 0
656 -670 0
-670 -659 0
662 -670 0
665 -670 0
-670 -668 0
669 670 0
-671 0
-672 0
-673 0
-674 0
-675 0
-676 0
-677 0
-678 0
